db/inputs/1967725057569187143199210698168513336.smt2
(set-logic QF_FP)
(declare-const x0 (_ FloatingPoint 8 24))
(declare-const x1 (_ FloatingPoint 8 24))
(declare-const x2 (_ FloatingPoint 8 24))
(declare-const x3 (_ FloatingPoint 8 24))
(assert (fp.eq (fp.div RNE x2 x3) (fp.div RNE x1 x3)))
(assert (fp.leq (fp.sub RNE x0 x1) (fp.neg x3)))
(assert (fp.gt (fp.add RNE x1 x3) (fp.sub RNE x0 x2)))
(assert (fp.leq (fp.neg x3) (fp.add RNE x2 x3)))
(assert (fp.leq (fp.div RNE x1 x1) (fp.div RNE x3 x0)))
(assert (fp.lt (fp.mul RNE x1 x1) (fp.neg x2)))
(assert (fp.geq (fp.sub RNE x1 x0) (fp.div RNE x1 x0)))
(assert (fp.leq (fp.div RNE x2 x1) (fp.sub RNE x3 x1)))
(assert (fp.eq (fp.div RNE x1 x3) (fp.neg x3)))
(assert (fp.gt (fp.neg x0) (fp.mul RNE x3 x2)))
(assert (fp.eq (fp.mul RNE x3 x2) (fp.neg x2)))
(assert (fp.eq (fp.neg x3) (fp.add RNE x1 x1)))
(assert (fp.leq (fp.add RNE x0 x2) (fp.add RNE x2 x1)))
(assert (fp.gt (fp.div RNE x0 x0) (fp.sub RNE x1 x0)))
(assert (fp.leq (fp.neg x0) (fp.neg x0)))
(assert (fp.geq (fp.mul RNE x3 x2) (fp.mul RNE x1 x0)))
(assert (fp.eq (fp.sub RNE x3 x3) (fp.sub RNE x1 x3)))
(assert (fp.leq (fp.mul RNE x3 x0) (fp.div RNE x2 x2)))
(assert (fp.lt (fp.sub RNE x2 x1) (fp.div RNE x1 x2)))
(check-sat)
