db/data/1967725057569187143199210698168513336.z3.out
unsat
-------------------
50.926552596
